c This is the baseline generate by sty
p cnf 300 1163
 1 2 3 0
 -1 -2 0
 -1 -3 0
 -2 -3 0
 31 32 33 0
 -31 -32 0
 -31 -33 0
 -32 -33 0
 61 62 63 0
 -61 -62 0
 -61 -63 0
 -62 -63 0
 73 74 75 0
 -73 -74 0
 -73 -75 0
 -74 -75 0
 157 158 159 0
 -157 -158 0
 -157 -159 0
 -158 -159 0
 187 188 189 0
 -187 -188 0
 -187 -189 0
 -188 -189 0
 193 194 195 0
 -193 -194 0
 -193 -195 0
 -194 -195 0
 223 224 225 0
 -223 -224 0
 -223 -225 0
 -224 -225 0
 253 254 255 0
 -253 -254 0
 -253 -255 0
 -254 -255 0
 265 266 267 0
 -265 -266 0
 -265 -267 0
 -266 -267 0
 295 296 297 0
 -295 -296 0
 -295 -297 0
 -296 -297 0
 -1 -73 -61 4 0
 -4 1 0
 -4 73 0
 -4 61 0
 -1 -74 -61 5 0
 -5 1 0
 -5 74 0
 -5 61 0
 -1 -75 -61 6 0
 -6 1 0
 -6 75 0
 -6 61 0
 -1 -73 -62 7 0
 -7 1 0
 -7 73 0
 -7 62 0
 -1 -74 -62 8 0
 -8 1 0
 -8 74 0
 -8 62 0
 -1 -75 -62 9 0
 -9 1 0
 -9 75 0
 -9 62 0
 -1 -73 -63 10 0
 -10 1 0
 -10 73 0
 -10 63 0
 -1 -74 -63 11 0
 -11 1 0
 -11 74 0
 -11 63 0
 -1 -75 -63 12 0
 -12 1 0
 -12 75 0
 -12 63 0
 -2 -73 -61 13 0
 -13 2 0
 -13 73 0
 -13 61 0
 -2 -74 -61 14 0
 -14 2 0
 -14 74 0
 -14 61 0
 -2 -75 -61 15 0
 -15 2 0
 -15 75 0
 -15 61 0
 -2 -73 -62 16 0
 -16 2 0
 -16 73 0
 -16 62 0
 -2 -74 -62 17 0
 -17 2 0
 -17 74 0
 -17 62 0
 -2 -75 -62 18 0
 -18 2 0
 -18 75 0
 -18 62 0
 -2 -73 -63 19 0
 -19 2 0
 -19 73 0
 -19 63 0
 -2 -74 -63 20 0
 -20 2 0
 -20 74 0
 -20 63 0
 -2 -75 -63 21 0
 -21 2 0
 -21 75 0
 -21 63 0
 -3 -73 -61 22 0
 -22 3 0
 -22 73 0
 -22 61 0
 -3 -74 -61 23 0
 -23 3 0
 -23 74 0
 -23 61 0
 -3 -75 -61 24 0
 -24 3 0
 -24 75 0
 -24 61 0
 -3 -73 -62 25 0
 -25 3 0
 -25 73 0
 -25 62 0
 -3 -74 -62 26 0
 -26 3 0
 -26 74 0
 -26 62 0
 -3 -75 -62 27 0
 -27 3 0
 -27 75 0
 -27 62 0
 -3 -73 -63 28 0
 -28 3 0
 -28 73 0
 -28 63 0
 -3 -74 -63 29 0
 -29 3 0
 -29 74 0
 -29 63 0
 -3 -75 -63 30 0
 -30 3 0
 -30 75 0
 -30 63 0
 -31 -1 -61 34 0
 -34 31 0
 -34 1 0
 -34 61 0
 -31 -2 -61 35 0
 -35 31 0
 -35 2 0
 -35 61 0
 -31 -3 -61 36 0
 -36 31 0
 -36 3 0
 -36 61 0
 -31 -1 -62 37 0
 -37 31 0
 -37 1 0
 -37 62 0
 -31 -2 -62 38 0
 -38 31 0
 -38 2 0
 -38 62 0
 -31 -3 -62 39 0
 -39 31 0
 -39 3 0
 -39 62 0
 -31 -1 -63 40 0
 -40 31 0
 -40 1 0
 -40 63 0
 -31 -2 -63 41 0
 -41 31 0
 -41 2 0
 -41 63 0
 -31 -3 -63 42 0
 -42 31 0
 -42 3 0
 -42 63 0
 -32 -1 -61 43 0
 -43 32 0
 -43 1 0
 -43 61 0
 -32 -2 -61 44 0
 -44 32 0
 -44 2 0
 -44 61 0
 -32 -3 -61 45 0
 -45 32 0
 -45 3 0
 -45 61 0
 -32 -1 -62 46 0
 -46 32 0
 -46 1 0
 -46 62 0
 -32 -2 -62 47 0
 -47 32 0
 -47 2 0
 -47 62 0
 -32 -3 -62 48 0
 -48 32 0
 -48 3 0
 -48 62 0
 -32 -1 -63 49 0
 -49 32 0
 -49 1 0
 -49 63 0
 -32 -2 -63 50 0
 -50 32 0
 -50 2 0
 -50 63 0
 -32 -3 -63 51 0
 -51 32 0
 -51 3 0
 -51 63 0
 -33 -1 -61 52 0
 -52 33 0
 -52 1 0
 -52 61 0
 -33 -2 -61 53 0
 -53 33 0
 -53 2 0
 -53 61 0
 -33 -3 -61 54 0
 -54 33 0
 -54 3 0
 -54 61 0
 -33 -1 -62 55 0
 -55 33 0
 -55 1 0
 -55 62 0
 -33 -2 -62 56 0
 -56 33 0
 -56 2 0
 -56 62 0
 -33 -3 -62 57 0
 -57 33 0
 -57 3 0
 -57 62 0
 -33 -1 -63 58 0
 -58 33 0
 -58 1 0
 -58 63 0
 -33 -2 -63 59 0
 -59 33 0
 -59 2 0
 -59 63 0
 -33 -3 -63 60 0
 -60 33 0
 -60 3 0
 -60 63 0
 -61 -187 64 0
 -64 61 0
 -64 187 0
 -61 -188 65 0
 -65 61 0
 -65 188 0
 -61 -189 66 0
 -66 61 0
 -66 189 0
 -62 -187 67 0
 -67 62 0
 -67 187 0
 -62 -188 68 0
 -68 62 0
 -68 188 0
 -62 -189 69 0
 -69 62 0
 -69 189 0
 -63 -187 70 0
 -70 63 0
 -70 187 0
 -63 -188 71 0
 -71 63 0
 -71 188 0
 -63 -189 72 0
 -72 63 0
 -72 189 0
 -73 -61 -187 -193 76 0
 -76 73 0
 -76 61 0
 -76 187 0
 -76 193 0
 -73 -62 -187 -193 77 0
 -77 73 0
 -77 62 0
 -77 187 0
 -77 193 0
 -73 -63 -187 -193 78 0
 -78 73 0
 -78 63 0
 -78 187 0
 -78 193 0
 -73 -61 -188 -193 79 0
 -79 73 0
 -79 61 0
 -79 188 0
 -79 193 0
 -73 -62 -188 -193 80 0
 -80 73 0
 -80 62 0
 -80 188 0
 -80 193 0
 -73 -63 -188 -193 81 0
 -81 73 0
 -81 63 0
 -81 188 0
 -81 193 0
 -73 -61 -189 -193 82 0
 -82 73 0
 -82 61 0
 -82 189 0
 -82 193 0
 -73 -62 -189 -193 83 0
 -83 73 0
 -83 62 0
 -83 189 0
 -83 193 0
 -73 -63 -189 -193 84 0
 -84 73 0
 -84 63 0
 -84 189 0
 -84 193 0
 -73 -61 -187 -194 85 0
 -85 73 0
 -85 61 0
 -85 187 0
 -85 194 0
 -73 -62 -187 -194 86 0
 -86 73 0
 -86 62 0
 -86 187 0
 -86 194 0
 -73 -63 -187 -194 87 0
 -87 73 0
 -87 63 0
 -87 187 0
 -87 194 0
 -73 -61 -188 -194 88 0
 -88 73 0
 -88 61 0
 -88 188 0
 -88 194 0
 -73 -62 -188 -194 89 0
 -89 73 0
 -89 62 0
 -89 188 0
 -89 194 0
 -73 -63 -188 -194 90 0
 -90 73 0
 -90 63 0
 -90 188 0
 -90 194 0
 -73 -61 -189 -194 91 0
 -91 73 0
 -91 61 0
 -91 189 0
 -91 194 0
 -73 -62 -189 -194 92 0
 -92 73 0
 -92 62 0
 -92 189 0
 -92 194 0
 -73 -63 -189 -194 93 0
 -93 73 0
 -93 63 0
 -93 189 0
 -93 194 0
 -73 -61 -187 -195 94 0
 -94 73 0
 -94 61 0
 -94 187 0
 -94 195 0
 -73 -62 -187 -195 95 0
 -95 73 0
 -95 62 0
 -95 187 0
 -95 195 0
 -73 -63 -187 -195 96 0
 -96 73 0
 -96 63 0
 -96 187 0
 -96 195 0
 -73 -61 -188 -195 97 0
 -97 73 0
 -97 61 0
 -97 188 0
 -97 195 0
 -73 -62 -188 -195 98 0
 -98 73 0
 -98 62 0
 -98 188 0
 -98 195 0
 -73 -63 -188 -195 99 0
 -99 73 0
 -99 63 0
 -99 188 0
 -99 195 0
 -73 -61 -189 -195 100 0
 -100 73 0
 -100 61 0
 -100 189 0
 -100 195 0
 -73 -62 -189 -195 101 0
 -101 73 0
 -101 62 0
 -101 189 0
 -101 195 0
 -73 -63 -189 -195 102 0
 -102 73 0
 -102 63 0
 -102 189 0
 -102 195 0
 -74 -61 -187 -193 103 0
 -103 74 0
 -103 61 0
 -103 187 0
 -103 193 0
 -74 -62 -187 -193 104 0
 -104 74 0
 -104 62 0
 -104 187 0
 -104 193 0
 -74 -63 -187 -193 105 0
 -105 74 0
 -105 63 0
 -105 187 0
 -105 193 0
 -74 -61 -188 -193 106 0
 -106 74 0
 -106 61 0
 -106 188 0
 -106 193 0
 -74 -62 -188 -193 107 0
 -107 74 0
 -107 62 0
 -107 188 0
 -107 193 0
 -74 -63 -188 -193 108 0
 -108 74 0
 -108 63 0
 -108 188 0
 -108 193 0
 -74 -61 -189 -193 109 0
 -109 74 0
 -109 61 0
 -109 189 0
 -109 193 0
 -74 -62 -189 -193 110 0
 -110 74 0
 -110 62 0
 -110 189 0
 -110 193 0
 -74 -63 -189 -193 111 0
 -111 74 0
 -111 63 0
 -111 189 0
 -111 193 0
 -74 -61 -187 -194 112 0
 -112 74 0
 -112 61 0
 -112 187 0
 -112 194 0
 -74 -62 -187 -194 113 0
 -113 74 0
 -113 62 0
 -113 187 0
 -113 194 0
 -74 -63 -187 -194 114 0
 -114 74 0
 -114 63 0
 -114 187 0
 -114 194 0
 -74 -61 -188 -194 115 0
 -115 74 0
 -115 61 0
 -115 188 0
 -115 194 0
 -74 -62 -188 -194 116 0
 -116 74 0
 -116 62 0
 -116 188 0
 -116 194 0
 -74 -63 -188 -194 117 0
 -117 74 0
 -117 63 0
 -117 188 0
 -117 194 0
 -74 -61 -189 -194 118 0
 -118 74 0
 -118 61 0
 -118 189 0
 -118 194 0
 -74 -62 -189 -194 119 0
 -119 74 0
 -119 62 0
 -119 189 0
 -119 194 0
 -74 -63 -189 -194 120 0
 -120 74 0
 -120 63 0
 -120 189 0
 -120 194 0
 -74 -61 -187 -195 121 0
 -121 74 0
 -121 61 0
 -121 187 0
 -121 195 0
 -74 -62 -187 -195 122 0
 -122 74 0
 -122 62 0
 -122 187 0
 -122 195 0
 -74 -63 -187 -195 123 0
 -123 74 0
 -123 63 0
 -123 187 0
 -123 195 0
 -74 -61 -188 -195 124 0
 -124 74 0
 -124 61 0
 -124 188 0
 -124 195 0
 -74 -62 -188 -195 125 0
 -125 74 0
 -125 62 0
 -125 188 0
 -125 195 0
 -74 -63 -188 -195 126 0
 -126 74 0
 -126 63 0
 -126 188 0
 -126 195 0
 -74 -61 -189 -195 127 0
 -127 74 0
 -127 61 0
 -127 189 0
 -127 195 0
 -74 -62 -189 -195 128 0
 -128 74 0
 -128 62 0
 -128 189 0
 -128 195 0
 -74 -63 -189 -195 129 0
 -129 74 0
 -129 63 0
 -129 189 0
 -129 195 0
 -75 -61 -187 -193 130 0
 -130 75 0
 -130 61 0
 -130 187 0
 -130 193 0
 -75 -62 -187 -193 131 0
 -131 75 0
 -131 62 0
 -131 187 0
 -131 193 0
 -75 -63 -187 -193 132 0
 -132 75 0
 -132 63 0
 -132 187 0
 -132 193 0
 -75 -61 -188 -193 133 0
 -133 75 0
 -133 61 0
 -133 188 0
 -133 193 0
 -75 -62 -188 -193 134 0
 -134 75 0
 -134 62 0
 -134 188 0
 -134 193 0
 -75 -63 -188 -193 135 0
 -135 75 0
 -135 63 0
 -135 188 0
 -135 193 0
 -75 -61 -189 -193 136 0
 -136 75 0
 -136 61 0
 -136 189 0
 -136 193 0
 -75 -62 -189 -193 137 0
 -137 75 0
 -137 62 0
 -137 189 0
 -137 193 0
 -75 -63 -189 -193 138 0
 -138 75 0
 -138 63 0
 -138 189 0
 -138 193 0
 -75 -61 -187 -194 139 0
 -139 75 0
 -139 61 0
 -139 187 0
 -139 194 0
 -75 -62 -187 -194 140 0
 -140 75 0
 -140 62 0
 -140 187 0
 -140 194 0
 -75 -63 -187 -194 141 0
 -141 75 0
 -141 63 0
 -141 187 0
 -141 194 0
 -75 -61 -188 -194 142 0
 -142 75 0
 -142 61 0
 -142 188 0
 -142 194 0
 -75 -62 -188 -194 143 0
 -143 75 0
 -143 62 0
 -143 188 0
 -143 194 0
 -75 -63 -188 -194 144 0
 -144 75 0
 -144 63 0
 -144 188 0
 -144 194 0
 -75 -61 -189 -194 145 0
 -145 75 0
 -145 61 0
 -145 189 0
 -145 194 0
 -75 -62 -189 -194 146 0
 -146 75 0
 -146 62 0
 -146 189 0
 -146 194 0
 -75 -63 -189 -194 147 0
 -147 75 0
 -147 63 0
 -147 189 0
 -147 194 0
 -75 -61 -187 -195 148 0
 -148 75 0
 -148 61 0
 -148 187 0
 -148 195 0
 -75 -62 -187 -195 149 0
 -149 75 0
 -149 62 0
 -149 187 0
 -149 195 0
 -75 -63 -187 -195 150 0
 -150 75 0
 -150 63 0
 -150 187 0
 -150 195 0
 -75 -61 -188 -195 151 0
 -151 75 0
 -151 61 0
 -151 188 0
 -151 195 0
 -75 -62 -188 -195 152 0
 -152 75 0
 -152 62 0
 -152 188 0
 -152 195 0
 -75 -63 -188 -195 153 0
 -153 75 0
 -153 63 0
 -153 188 0
 -153 195 0
 -75 -61 -189 -195 154 0
 -154 75 0
 -154 61 0
 -154 189 0
 -154 195 0
 -75 -62 -189 -195 155 0
 -155 75 0
 -155 62 0
 -155 189 0
 -155 195 0
 -75 -63 -189 -195 156 0
 -156 75 0
 -156 63 0
 -156 189 0
 -156 195 0
 -157 -61 -187 160 0
 -160 157 0
 -160 61 0
 -160 187 0
 -157 -62 -187 161 0
 -161 157 0
 -161 62 0
 -161 187 0
 -157 -63 -187 162 0
 -162 157 0
 -162 63 0
 -162 187 0
 -157 -61 -188 163 0
 -163 157 0
 -163 61 0
 -163 188 0
 -157 -62 -188 164 0
 -164 157 0
 -164 62 0
 -164 188 0
 -157 -63 -188 165 0
 -165 157 0
 -165 63 0
 -165 188 0
 -157 -61 -189 166 0
 -166 157 0
 -166 61 0
 -166 189 0
 -157 -62 -189 167 0
 -167 157 0
 -167 62 0
 -167 189 0
 -157 -63 -189 168 0
 -168 157 0
 -168 63 0
 -168 189 0
 -158 -61 -187 169 0
 -169 158 0
 -169 61 0
 -169 187 0
 -158 -62 -187 170 0
 -170 158 0
 -170 62 0
 -170 187 0
 -158 -63 -187 171 0
 -171 158 0
 -171 63 0
 -171 187 0
 -158 -61 -188 172 0
 -172 158 0
 -172 61 0
 -172 188 0
 -158 -62 -188 173 0
 -173 158 0
 -173 62 0
 -173 188 0
 -158 -63 -188 174 0
 -174 158 0
 -174 63 0
 -174 188 0
 -158 -61 -189 175 0
 -175 158 0
 -175 61 0
 -175 189 0
 -158 -62 -189 176 0
 -176 158 0
 -176 62 0
 -176 189 0
 -158 -63 -189 177 0
 -177 158 0
 -177 63 0
 -177 189 0
 -159 -61 -187 178 0
 -178 159 0
 -178 61 0
 -178 187 0
 -159 -62 -187 179 0
 -179 159 0
 -179 62 0
 -179 187 0
 -159 -63 -187 180 0
 -180 159 0
 -180 63 0
 -180 187 0
 -159 -61 -188 181 0
 -181 159 0
 -181 61 0
 -181 188 0
 -159 -62 -188 182 0
 -182 159 0
 -182 62 0
 -182 188 0
 -159 -63 -188 183 0
 -183 159 0
 -183 63 0
 -183 188 0
 -159 -61 -189 184 0
 -184 159 0
 -184 61 0
 -184 189 0
 -159 -62 -189 185 0
 -185 159 0
 -185 62 0
 -185 189 0
 -159 -63 -189 186 0
 -186 159 0
 -186 63 0
 -186 189 0
 -187 190 0
 -190 187 0
 -188 191 0
 -191 188 0
 -189 192 0
 -192 189 0
 -193 -61 -187 196 0
 -196 193 0
 -196 61 0
 -196 187 0
 -193 -62 -187 197 0
 -197 193 0
 -197 62 0
 -197 187 0
 -193 -63 -187 198 0
 -198 193 0
 -198 63 0
 -198 187 0
 -193 -61 -188 199 0
 -199 193 0
 -199 61 0
 -199 188 0
 -193 -62 -188 200 0
 -200 193 0
 -200 62 0
 -200 188 0
 -193 -63 -188 201 0
 -201 193 0
 -201 63 0
 -201 188 0
 -193 -61 -189 202 0
 -202 193 0
 -202 61 0
 -202 189 0
 -193 -62 -189 203 0
 -203 193 0
 -203 62 0
 -203 189 0
 -193 -63 -189 204 0
 -204 193 0
 -204 63 0
 -204 189 0
 -194 -61 -187 205 0
 -205 194 0
 -205 61 0
 -205 187 0
 -194 -62 -187 206 0
 -206 194 0
 -206 62 0
 -206 187 0
 -194 -63 -187 207 0
 -207 194 0
 -207 63 0
 -207 187 0
 -194 -61 -188 208 0
 -208 194 0
 -208 61 0
 -208 188 0
 -194 -62 -188 209 0
 -209 194 0
 -209 62 0
 -209 188 0
 -194 -63 -188 210 0
 -210 194 0
 -210 63 0
 -210 188 0
 -194 -61 -189 211 0
 -211 194 0
 -211 61 0
 -211 189 0
 -194 -62 -189 212 0
 -212 194 0
 -212 62 0
 -212 189 0
 -194 -63 -189 213 0
 -213 194 0
 -213 63 0
 -213 189 0
 -195 -61 -187 214 0
 -214 195 0
 -214 61 0
 -214 187 0
 -195 -62 -187 215 0
 -215 195 0
 -215 62 0
 -215 187 0
 -195 -63 -187 216 0
 -216 195 0
 -216 63 0
 -216 187 0
 -195 -61 -188 217 0
 -217 195 0
 -217 61 0
 -217 188 0
 -195 -62 -188 218 0
 -218 195 0
 -218 62 0
 -218 188 0
 -195 -63 -188 219 0
 -219 195 0
 -219 63 0
 -219 188 0
 -195 -61 -189 220 0
 -220 195 0
 -220 61 0
 -220 189 0
 -195 -62 -189 221 0
 -221 195 0
 -221 62 0
 -221 189 0
 -195 -63 -189 222 0
 -222 195 0
 -222 63 0
 -222 189 0
 -223 -61 -187 226 0
 -226 223 0
 -226 61 0
 -226 187 0
 -223 -62 -187 227 0
 -227 223 0
 -227 62 0
 -227 187 0
 -223 -63 -187 228 0
 -228 223 0
 -228 63 0
 -228 187 0
 -223 -61 -188 229 0
 -229 223 0
 -229 61 0
 -229 188 0
 -223 -62 -188 230 0
 -230 223 0
 -230 62 0
 -230 188 0
 -223 -63 -188 231 0
 -231 223 0
 -231 63 0
 -231 188 0
 -223 -61 -189 232 0
 -232 223 0
 -232 61 0
 -232 189 0
 -223 -62 -189 233 0
 -233 223 0
 -233 62 0
 -233 189 0
 -223 -63 -189 234 0
 -234 223 0
 -234 63 0
 -234 189 0
 -224 -61 -187 235 0
 -235 224 0
 -235 61 0
 -235 187 0
 -224 -62 -187 236 0
 -236 224 0
 -236 62 0
 -236 187 0
 -224 -63 -187 237 0
 -237 224 0
 -237 63 0
 -237 187 0
 -224 -61 -188 238 0
 -238 224 0
 -238 61 0
 -238 188 0
 -224 -62 -188 239 0
 -239 224 0
 -239 62 0
 -239 188 0
 -224 -63 -188 240 0
 -240 224 0
 -240 63 0
 -240 188 0
 -224 -61 -189 241 0
 -241 224 0
 -241 61 0
 -241 189 0
 -224 -62 -189 242 0
 -242 224 0
 -242 62 0
 -242 189 0
 -224 -63 -189 243 0
 -243 224 0
 -243 63 0
 -243 189 0
 -225 -61 -187 244 0
 -244 225 0
 -244 61 0
 -244 187 0
 -225 -62 -187 245 0
 -245 225 0
 -245 62 0
 -245 187 0
 -225 -63 -187 246 0
 -246 225 0
 -246 63 0
 -246 187 0
 -225 -61 -188 247 0
 -247 225 0
 -247 61 0
 -247 188 0
 -225 -62 -188 248 0
 -248 225 0
 -248 62 0
 -248 188 0
 -225 -63 -188 249 0
 -249 225 0
 -249 63 0
 -249 188 0
 -225 -61 -189 250 0
 -250 225 0
 -250 61 0
 -250 189 0
 -225 -62 -189 251 0
 -251 225 0
 -251 62 0
 -251 189 0
 -225 -63 -189 252 0
 -252 225 0
 -252 63 0
 -252 189 0
 -253 -295 256 0
 -256 253 0
 -256 295 0
 -253 -296 257 0
 -257 253 0
 -257 296 0
 -253 -297 258 0
 -258 253 0
 -258 297 0
 -254 -295 259 0
 -259 254 0
 -259 295 0
 -254 -296 260 0
 -260 254 0
 -260 296 0
 -254 -297 261 0
 -261 254 0
 -261 297 0
 -255 -295 262 0
 -262 255 0
 -262 295 0
 -255 -296 263 0
 -263 255 0
 -263 296 0
 -255 -297 264 0
 -264 255 0
 -264 297 0
 -265 -253 -295 268 0
 -268 265 0
 -268 253 0
 -268 295 0
 -265 -254 -295 269 0
 -269 265 0
 -269 254 0
 -269 295 0
 -265 -255 -295 270 0
 -270 265 0
 -270 255 0
 -270 295 0
 -265 -253 -296 271 0
 -271 265 0
 -271 253 0
 -271 296 0
 -265 -254 -296 272 0
 -272 265 0
 -272 254 0
 -272 296 0
 -265 -255 -296 273 0
 -273 265 0
 -273 255 0
 -273 296 0
 -265 -253 -297 274 0
 -274 265 0
 -274 253 0
 -274 297 0
 -265 -254 -297 275 0
 -275 265 0
 -275 254 0
 -275 297 0
 -265 -255 -297 276 0
 -276 265 0
 -276 255 0
 -276 297 0
 -266 -253 -295 277 0
 -277 266 0
 -277 253 0
 -277 295 0
 -266 -254 -295 278 0
 -278 266 0
 -278 254 0
 -278 295 0
 -266 -255 -295 279 0
 -279 266 0
 -279 255 0
 -279 295 0
 -266 -253 -296 280 0
 -280 266 0
 -280 253 0
 -280 296 0
 -266 -254 -296 281 0
 -281 266 0
 -281 254 0
 -281 296 0
 -266 -255 -296 282 0
 -282 266 0
 -282 255 0
 -282 296 0
 -266 -253 -297 283 0
 -283 266 0
 -283 253 0
 -283 297 0
 -266 -254 -297 284 0
 -284 266 0
 -284 254 0
 -284 297 0
 -266 -255 -297 285 0
 -285 266 0
 -285 255 0
 -285 297 0
 -267 -253 -295 286 0
 -286 267 0
 -286 253 0
 -286 295 0
 -267 -254 -295 287 0
 -287 267 0
 -287 254 0
 -287 295 0
 -267 -255 -295 288 0
 -288 267 0
 -288 255 0
 -288 295 0
 -267 -253 -296 289 0
 -289 267 0
 -289 253 0
 -289 296 0
 -267 -254 -296 290 0
 -290 267 0
 -290 254 0
 -290 296 0
 -267 -255 -296 291 0
 -291 267 0
 -291 255 0
 -291 296 0
 -267 -253 -297 292 0
 -292 267 0
 -292 253 0
 -292 297 0
 -267 -254 -297 293 0
 -293 267 0
 -293 254 0
 -293 297 0
 -267 -255 -297 294 0
 -294 267 0
 -294 255 0
 -294 297 0
 -295 298 0
 -298 295 0
 -296 299 0
 -299 296 0
 -297 300 0
 -300 297 0
